(set-info :smt-lib-version 2.6)
(set-info :category "crafted")
(set-logic QF_FFA)
(define-sort FF0 () (_ FiniteField 52435875175126190479447740508185965837690552500527637822603658699938581184513))
(declare-fun x10_n3_alt () FF0)
(declare-fun x3_n6_alt () FF0)
(declare-fun x5_n9_alt () FF0)
(declare-fun x7_n12_alt () FF0)
(declare-fun x8_n1_alt () FF0)
(declare-fun x0_n4_alt () FF0)
(declare-fun x13_n7_alt () FF0)
(declare-fun x11_n10_alt () FF0)
(declare-fun x15_n13_alt () FF0)
(declare-fun x2_n16_alt () FF0)
(declare-fun x4_n2_alt () FF0)
(declare-fun x14_n5_alt () FF0)
(declare-fun x9_n8_alt () FF0)
(declare-fun x1_n11_alt () FF0)
(declare-fun x6_n14_alt () FF0)
(declare-fun x12_n0_alt () FF0)
(declare-fun return_n15_alt () FF0)
(declare-fun is_zero_inv_n17_alt () FF0)
(declare-fun x10_n3 () FF0)
(declare-fun x3_n6 () FF0)
(declare-fun x5_n9 () FF0)
(declare-fun x7_n12 () FF0)
(declare-fun x8_n1 () FF0)
(declare-fun x0_n4 () FF0)
(declare-fun x13_n7 () FF0)
(declare-fun x11_n10 () FF0)
(declare-fun x15_n13 () FF0)
(declare-fun x2_n16 () FF0)
(declare-fun x4_n2 () FF0)
(declare-fun x14_n5 () FF0)
(declare-fun x9_n8 () FF0)
(declare-fun x1_n11 () FF0)
(declare-fun x6_n14 () FF0)
(declare-fun x12_n0 () FF0)
(declare-fun return_n15 () FF0)
(declare-fun is_zero_inv_n17 () FF0)
(assert 
  (let ((let0 (as ff0 FF0)))
  (let ((let1 (as ff16 FF0)))
  (let ((let2 (as ff52435875175126190479447740508185965837690552500527637822603658699938581184512 FF0)))
  (let ((let3 x10_n3_alt))
  (let ((let4 (ff.mul let3 let2)))
  (let ((let5 x3_n6_alt))
  (let ((let6 (ff.mul let5 let2)))
  (let ((let7 x5_n9_alt))
  (let ((let8 (ff.mul let7 let2)))
  (let ((let9 x7_n12_alt))
  (let ((let10 (ff.mul let9 let2)))
  (let ((let11 x8_n1_alt))
  (let ((let12 (ff.mul let11 let2)))
  (let ((let13 x0_n4_alt))
  (let ((let14 (ff.mul let13 let2)))
  (let ((let15 x13_n7_alt))
  (let ((let16 (ff.mul let15 let2)))
  (let ((let17 x11_n10_alt))
  (let ((let18 (ff.mul let17 let2)))
  (let ((let19 x15_n13_alt))
  (let ((let20 (ff.mul let19 let2)))
  (let ((let21 x2_n16_alt))
  (let ((let22 (ff.mul let21 let2)))
  (let ((let23 x4_n2_alt))
  (let ((let24 (ff.mul let23 let2)))
  (let ((let25 x14_n5_alt))
  (let ((let26 (ff.mul let25 let2)))
  (let ((let27 x9_n8_alt))
  (let ((let28 (ff.mul let27 let2)))
  (let ((let29 x1_n11_alt))
  (let ((let30 (ff.mul let29 let2)))
  (let ((let31 x6_n14_alt))
  (let ((let32 (ff.mul let31 let2)))
  (let ((let33 x12_n0_alt))
  (let ((let34 (ff.mul let33 let2)))
  (let ((let35 (ff.add let34 let32 let30 let28 let26 let24 let22 let20 let18 let16 let14 let12 let10 let8 let6 let4 let1)))
  (let ((let36 return_n15_alt))
  (let ((let37 (ff.mul let36 let35)))
  (let ((let38 (= let37 let0)))
  (let ((let39 (as ff1 FF0)))
  (let ((let40 (ff.mul let36 let2)))
  (let ((let41 (ff.add let40 let39)))
  (let ((let42 is_zero_inv_n17_alt))
  (let ((let43 (ff.mul let42 let35)))
  (let ((let44 (= let43 let41)))
  (let ((let45 (and let44 let38)))
  (let ((let46 x10_n3))
  (let ((let47 (ff.mul let46 let2)))
  (let ((let48 x3_n6))
  (let ((let49 (ff.mul let48 let2)))
  (let ((let50 x5_n9))
  (let ((let51 (ff.mul let50 let2)))
  (let ((let52 x7_n12))
  (let ((let53 (ff.mul let52 let2)))
  (let ((let54 x8_n1))
  (let ((let55 (ff.mul let54 let2)))
  (let ((let56 x0_n4))
  (let ((let57 (ff.mul let56 let2)))
  (let ((let58 x13_n7))
  (let ((let59 (ff.mul let58 let2)))
  (let ((let60 x11_n10))
  (let ((let61 (ff.mul let60 let2)))
  (let ((let62 x15_n13))
  (let ((let63 (ff.mul let62 let2)))
  (let ((let64 x2_n16))
  (let ((let65 (ff.mul let64 let2)))
  (let ((let66 x4_n2))
  (let ((let67 (ff.mul let66 let2)))
  (let ((let68 x14_n5))
  (let ((let69 (ff.mul let68 let2)))
  (let ((let70 x9_n8))
  (let ((let71 (ff.mul let70 let2)))
  (let ((let72 x1_n11))
  (let ((let73 (ff.mul let72 let2)))
  (let ((let74 x6_n14))
  (let ((let75 (ff.mul let74 let2)))
  (let ((let76 x12_n0))
  (let ((let77 (ff.mul let76 let2)))
  (let ((let78 (ff.add let77 let75 let73 let71 let69 let67 let65 let63 let61 let59 let57 let55 let53 let51 let49 let47 let1)))
  (let ((let79 return_n15))
  (let ((let80 (ff.mul let79 let78)))
  (let ((let81 (= let80 let0)))
  (let ((let82 (ff.mul let79 let2)))
  (let ((let83 (ff.add let82 let39)))
  (let ((let84 is_zero_inv_n17))
  (let ((let85 (ff.mul let84 let78)))
  (let ((let86 (= let85 let83)))
  (let ((let87 (and let86 let81)))
  (let ((let88 (= let79 let36)))
  (let ((let89 (not let88)))
  (let ((let90 (= let62 let19)))
  (let ((let91 (= let54 let11)))
  (let ((let92 (= let58 let15)))
  (let ((let93 (= let70 let27)))
  (let ((let94 (= let76 let33)))
  (let ((let95 (= let74 let31)))
  (let ((let96 (= let46 let3)))
  (let ((let97 (= let50 let7)))
  (let ((let98 (= let64 let21)))
  (let ((let99 (= let56 let13)))
  (let ((let100 (= let68 let25)))
  (let ((let101 (= let60 let17)))
  (let ((let102 (= let66 let23)))
  (let ((let103 (= let48 let5)))
  (let ((let104 (= let72 let29)))
  (let ((let105 (= let52 let9)))
  (let ((let106 (and let105 let104 let103 let102 let101 let100 let99 let98 let97 let96 let95 let94 let93 let92 let91 let90)))
  (let ((let107 (and let106 let89 let87 let45)))
  let107
))))))))))))))))))))))))))))))))))))))))))))))))))))))))))))))))))))))))))))))))))))))))))))))))))))))))))))
)
(check-sat)
